WARNING: for repeatability, setting FPU to use double precision
============================[ Problem Statistics ]=============================
|                                                                             |
|  Number of variables:        249398                                         |
|  Number of clauses:         1484862                                         |
|  Parse time:                   0.41 s                                       |
|                                                                             |
c ============================[ Search Statistics ]==============================
c | Conflicts |          ORIGINAL         |          LEARNT          | Progress |
c |           |    Vars  Clauses Literals |    Limit  Clauses Lit/Cl |          |
c ===============================================================================
c Switched to VSIDS.
c Switched to LRB.
c Switched to VSIDS.
c Switched to LRB.
c Switched to VSIDS.
c Switched to LRB.
c Switched to VSIDS.
c Switched to LRB.
c Switched to VSIDS.
c Switched to LRB.
c Switched to VSIDS.
c Switched to LRB.
c Switched to VSIDS.
c Switched to LRB.
c Switched to VSIDS.
c Switched to LRB.
c Switched to VSIDS.
c Switched to LRB.
c Switched to VSIDS.
c Switched to LRB.
c Switched to VSIDS.
c Switched to LRB.
c Switched to VSIDS.
c Switched to LRB.
c Switched to VSIDS.
c Switched to LRB.
c Switched to VSIDS.
c Switched to LRB.
c ===============================================================================
restarts                  : 21443
conflicts                 : 5282034        (2157 /sec)
decisions                 : 624363954      (0.00 % random) (254962 /sec)
propagations              : 4388973400     (1792256 /sec)
conflict literals         : 105831520      (22.94 % deleted)

conflicts w/ DIP found    : 3147471        (59.59 % of conflicts)
conflicts w/ dangerous DIP: 0              (0.00 % of conflicts)
conflicts w/ DIP-learning : 48             (0.00 % of conflicts)
decisions on ext vars     : 992            (0.00 % of decisions)
total ext vars            : 22          
tried delete ext vars     : 0           
deleted ext vars          : 0           
max ext vars              : 22          

Memory used               : 854.00 MB
CPU time                  : 2448.85 s
DIP computation time      : 35.0967 s (1.43 % of total time)
ER_sel time               : 4.96934 s
ER_add time               : 0.001211 s
ER_delC time              : 0 s
ER_delV time              : 0 s
ER_sub time               : 8.23444 s
ER_stat time              : 0 s

SATISFIABLE
